language Essence 1.3

letting blksize_delta be function(1 --> 6, 2 --> 7, 3 --> 6, 4 --> 6, 5 --> 6, 6 --> 6)
letting maxcars be function(1 --> 9, 2 --> 9, 3 --> 10, 4 --> 10, 5 --> 9, 6 --> 9)
letting n_cars be 263
letting n_classes be 126
letting n_options be 6
letting quantity be
        function(1 --> 2, 2 --> 1, 3 --> 7, 4 --> 15, 5 --> 2, 6 --> 15, 7 --> 18, 8 --> 1, 9 --> 1, 10 --> 12,
                 11 --> 1, 12 --> 14, 13 --> 20, 14 --> 21, 15 --> 15, 16 --> 3, 17 --> 5, 18 --> 1, 19 --> 2, 20 --> 1,
                 21 --> 1, 22 --> 1, 23 --> 1, 24 --> 1, 25 --> 1, 26 --> 1, 27 --> 1, 28 --> 1, 29 --> 1, 30 --> 1,
                 31 --> 1, 32 --> 1, 33 --> 1, 34 --> 1, 35 --> 1, 36 --> 1, 37 --> 1, 38 --> 1, 39 --> 1, 40 --> 1,
                 41 --> 1, 42 --> 1, 43 --> 1, 44 --> 1, 45 --> 1, 46 --> 1, 47 --> 1, 48 --> 1, 49 --> 1, 50 --> 1,
                 51 --> 1, 52 --> 1, 53 --> 1, 54 --> 1, 55 --> 1, 56 --> 1, 57 --> 1, 58 --> 1, 59 --> 1, 60 --> 1,
                 61 --> 1, 62 --> 1, 63 --> 1, 64 --> 1, 65 --> 1, 66 --> 1, 67 --> 1, 68 --> 1, 69 --> 1, 70 --> 1,
                 71 --> 1, 72 --> 1, 73 --> 1, 74 --> 1, 75 --> 1, 76 --> 1, 77 --> 1, 78 --> 1, 79 --> 1, 80 --> 1,
                 81 --> 1, 82 --> 1, 83 --> 1, 84 --> 1, 85 --> 1, 86 --> 1, 87 --> 1, 88 --> 1, 89 --> 1, 90 --> 1,
                 91 --> 1, 92 --> 1, 93 --> 1, 94 --> 1, 95 --> 1, 96 --> 1, 97 --> 1, 98 --> 1, 99 --> 1, 100 --> 1,
                 101 --> 1, 102 --> 1, 103 --> 1, 104 --> 1, 105 --> 1, 106 --> 1, 107 --> 1, 108 --> 1, 109 --> 1,
                 110 --> 1, 111 --> 1, 112 --> 1, 113 --> 1, 114 --> 1, 115 --> 1, 116 --> 1, 117 --> 1, 118 --> 1,
                 119 --> 1, 120 --> 1, 121 --> 1, 122 --> 1, 123 --> 1, 124 --> 1, 125 --> 1, 126 --> 1)
letting usage be
        relation((1, 1), (1, 2), (2, 3), (2, 4), (3, 2), (3, 5), (3, 6), (4, 1), (4, 2), (4, 3), (4, 6), (5, 2), (5, 3),
                 (5, 4), (5, 5), (6, 3), (7, 2), (7, 3), (7, 5), (7, 6), (8, 3), (8, 5), (9, 4), (9, 5), (10, 1),
                 (10, 2), (10, 4), (10, 5), (11, 1), (11, 2), (11, 6), (12, 6), (13, 6), (14, 3), (15, 1), (15, 4),
                 (15, 6), (16, 1), (16, 5), (17, 2), (17, 3), (17, 5), (18, 2), (18, 4), (18, 5), (19, 1), (19, 2),
                 (19, 4), (19, 6), (20, 3), (20, 5), (20, 6), (21, 1), (21, 3), (21, 4), (21, 6), (22, 5), (23, 3),
                 (23, 5), (24, 6), (25, 2), (25, 4), (25, 5), (25, 6), (26, 3), (26, 6), (27, 2), (27, 5), (27, 6),
                 (28, 1), (28, 3), (29, 1), (29, 6), (30, 1), (30, 3), (30, 5), (30, 6), (31, 1), (31, 2), (31, 4),
                 (32, 1), (32, 2), (32, 4), (33, 2), (34, 1), (34, 2), (34, 3), (34, 6), (35, 4), (35, 5), (36, 6),
                 (37, 6), (38, 2), (39, 1), (39, 2), (39, 5), (39, 6), (40, 1), (40, 2), (40, 3), (40, 6), (41, 1),
                 (41, 4), (42, 1), (42, 2), (42, 3), (43, 2), (43, 3), (43, 4), (44, 2), (44, 3), (44, 4), (44, 5),
                 (45, 1), (45, 2), (45, 6), (46, 2), (46, 3), (46, 4), (46, 5), (47, 3), (47, 4), (47, 5), (47, 6),
                 (48, 4), (48, 5), (49, 1), (49, 5), (50, 3), (50, 4), (50, 5), (50, 6), (51, 3), (51, 4), (52, 3),
                 (52, 5), (53, 1), (53, 2), (53, 6), (54, 1), (54, 2), (54, 4), (54, 5), (54, 6), (55, 6), (56, 4),
                 (56, 5), (56, 6), (57, 3), (57, 4), (57, 5), (57, 6), (58, 1), (58, 2), (59, 1), (59, 2), (59, 4),
                 (60, 2), (60, 3), (60, 4), (60, 6), (61, 6), (62, 1), (62, 4), (63, 5), (64, 3), (64, 4), (64, 6),
                 (65, 3), (65, 4), (66, 3), (66, 4), (66, 6), (67, 2), (67, 5), (67, 6), (68, 1), (68, 2), (68, 4),
                 (68, 6), (69, 1), (69, 2), (69, 4), (69, 5), (69, 6), (70, 2), (70, 3), (70, 4), (71, 1), (71, 2),
                 (71, 5), (72, 2), (72, 3), (72, 4), (72, 6), (73, 3), (74, 1), (74, 4), (74, 6), (75, 1), (75, 3),
                 (75, 6), (76, 3), (76, 4), (76, 5), (77, 1), (78, 3), (78, 4), (78, 6), (79, 1), (79, 4), (79, 6),
                 (80, 4), (80, 5), (80, 6), (81, 1), (81, 4), (82, 3), (82, 6), (83, 5), (84, 2), (84, 3), (84, 6),
                 (85, 2), (85, 5), (85, 6), (86, 2), (86, 6), (87, 2), (87, 5), (87, 6), (88, 1), (88, 6), (89, 1),
                 (89, 2), (89, 3), (89, 5), (90, 2), (90, 4), (91, 2), (91, 4), (92, 4), (93, 1), (93, 4), (94, 2),
                 (94, 6), (95, 1), (95, 3), (95, 4), (96, 1), (96, 2), (96, 4), (96, 5), (97, 1), (97, 2), (97, 6),
                 (98, 1), (98, 5), (98, 6), (99, 3), (99, 4), (99, 5), (100, 1), (100, 2), (100, 5), (101, 1), (101, 5),
                 (101, 6), (102, 4), (102, 5), (103, 1), (103, 4), (103, 5), (103, 6), (104, 1), (104, 3), (104, 4),
                 (104, 5), (105, 1), (105, 3), (105, 5), (106, 1), (106, 4), (107, 1), (107, 4), (107, 5), (108, 1),
                 (108, 4), (109, 4), (109, 5), (110, 2), (110, 5), (111, 1), (111, 2), (111, 3), (112, 4), (112, 5),
                 (113, 1), (113, 3), (113, 4), (114, 3), (114, 4), (115, 4), (116, 1), (116, 2), (116, 5), (117, 1),
                 (117, 4), (118, 1), (118, 2), (118, 4), (119, 1), (119, 2), (119, 5), (120, 6), (121, 1), (121, 3),
                 (121, 4), (122, 1), (122, 2), (122, 3), (122, 4), (123, 6), (124, 1), (124, 4), (124, 5), (125, 5),
                 (126, 6))
$ Visualisation for usage
$   1   1
$   1   2
$   2   3
$   2   4
$   3   2
$   3   5
$   3   6
$   4   1
$   4   2
$   4   3
$   4   6
$   5   2
$   5   3
$   5   4
$   5   5
$   6   3
$   7   2
$   7   3
$   7   5
$   7   6
$   8   3
$   8   5
$   9   4
$   9   5
$  10   1
$  10   2
$  10   4
$  10   5
$  11   1
$  11   2
$  11   6
$  12   6
$  13   6
$  14   3
$  15   1
$  15   4
$  15   6
$  16   1
$  16   5
$  17   2
$  17   3
$  17   5
$  18   2
$  18   4
$  18   5
$  19   1
$  19   2
$  19   4
$  19   6
$  20   3
$  20   5
$  20   6
$  21   1
$  21   3
$  21   4
$  21   6
$  22   5
$  23   3
$  23   5
$  24   6
$  25   2
$  25   4
$  25   5
$  25   6
$  26   3
$  26   6
$  27   2
$  27   5
$  27   6
$  28   1
$  28   3
$  29   1
$  29   6
$  30   1
$  30   3
$  30   5
$  30   6
$  31   1
$  31   2
$  31   4
$  32   1
$  32   2
$  32   4
$  33   2
$  34   1
$  34   2
$  34   3
$  34   6
$  35   4
$  35   5
$  36   6
$  37   6
$  38   2
$  39   1
$  39   2
$  39   5
$  39   6
$  40   1
$  40   2
$  40   3
$  40   6
$  41   1
$  41   4
$  42   1
$  42   2
$  42   3
$  43   2
$  43   3
$  43   4
$  44   2
$  44   3
$  44   4
$  44   5
$  45   1
$  45   2
$  45   6
$  46   2
$  46   3
$  46   4
$  46   5
$  47   3
$  47   4
$  47   5
$  47   6
$  48   4
$  48   5
$  49   1
$  49   5
$  50   3
$  50   4
$  50   5
$  50   6
$  51   3
$  51   4
$  52   3
$  52   5
$  53   1
$  53   2
$  53   6
$  54   1
$  54   2
$  54   4
$  54   5
$  54   6
$  55   6
$  56   4
$  56   5
$  56   6
$  57   3
$  57   4
$  57   5
$  57   6
$  58   1
$  58   2
$  59   1
$  59   2
$  59   4
$  60   2
$  60   3
$  60   4
$  60   6
$  61   6
$  62   1
$  62   4
$  63   5
$  64   3
$  64   4
$  64   6
$  65   3
$  65   4
$  66   3
$  66   4
$  66   6
$  67   2
$  67   5
$  67   6
$  68   1
$  68   2
$  68   4
$  68   6
$  69   1
$  69   2
$  69   4
$  69   5
$  69   6
$  70   2
$  70   3
$  70   4
$  71   1
$  71   2
$  71   5
$  72   2
$  72   3
$  72   4
$  72   6
$  73   3
$  74   1
$  74   4
$  74   6
$  75   1
$  75   3
$  75   6
$  76   3
$  76   4
$  76   5
$  77   1
$  78   3
$  78   4
$  78   6
$  79   1
$  79   4
$  79   6
$  80   4
$  80   5
$  80   6
$  81   1
$  81   4
$  82   3
$  82   6
$  83   5
$  84   2
$  84   3
$  84   6
$  85   2
$  85   5
$  85   6
$  86   2
$  86   6
$  87   2
$  87   5
$  87   6
$  88   1
$  88   6
$  89   1
$  89   2
$  89   3
$  89   5
$  90   2
$  90   4
$  91   2
$  91   4
$  92   4
$  93   1
$  93   4
$  94   2
$  94   6
$  95   1
$  95   3
$  95   4
$  96   1
$  96   2
$  96   4
$  96   5
$  97   1
$  97   2
$  97   6
$  98   1
$  98   5
$  98   6
$  99   3
$  99   4
$  99   5
$ 100   1
$ 100   2
$ 100   5
$ 101   1
$ 101   5
$ 101   6
$ 102   4
$ 102   5
$ 103   1
$ 103   4
$ 103   5
$ 103   6
$ 104   1
$ 104   3
$ 104   4
$ 104   5
$ 105   1
$ 105   3
$ 105   5
$ 106   1
$ 106   4
$ 107   1
$ 107   4
$ 107   5
$ 108   1
$ 108   4
$ 109   4
$ 109   5
$ 110   2
$ 110   5
$ 111   1
$ 111   2
$ 111   3
$ 112   4
$ 112   5
$ 113   1
$ 113   3
$ 113   4
$ 114   3
$ 114   4
$ 115   4
$ 116   1
$ 116   2
$ 116   5
$ 117   1
$ 117   4
$ 118   1
$ 118   2
$ 118   4
$ 119   1
$ 119   2
$ 119   5
$ 120   6
$ 121   1
$ 121   3
$ 121   4
$ 122   1
$ 122   2
$ 122   3
$ 122   4
$ 123   6
$ 124   1
$ 124   4
$ 124   5
$ 125   5
$ 126   6

